\ Equation counts
\     Total        E        G        L        N        X        C        B
\	68	68	0	0
\
\ Variable counts
\                  x        b        i      s1s      s2s       sc       si
\     Total     cont   binary  integer     sos1     sos2    scont     sint
\	40	40

\ Nonzero counts
\     Total    const       NL      DLL
\
\
Minimize
 obj: [ + 2.5 x_1 * x_1 + 20.0 x_1 * x_2 - 18.5 x_1 * x_3 - 8.5 x_1 * x_8 + 3.5 x_1 * x_9 + 22.0 x_1 * x_10 - 11.5 x_1 * x_14 - 19.5 x_1 * x_15 + 8.0 x_1 * x_16 - 3.5 x_1 * x_17 - 10.5 x_1 * x_18 - 20.0 x_1 * x_21 - 1.5 x_1 * x_23 + 9.0 x_1 * x_29 + 15.5 x_1 * x_37 - 5.5 x_1 * x_38 + 3.0 x_1 * x_40 + 20.0 x_2 * x_1 - 6.5 x_2 * x_2 - 1.0 x_2 * x_4 + 11.0 x_2 * x_8 + 18.0 x_2 * x_15 - 6.5 x_2 * x_19 + 16.0 x_2 * x_21 + 20.5 x_2 * x_22 + 23.5 x_2 * x_24 - 16.0 x_2 * x_28 + 10.5 x_2 * x_30 + 6.0 x_2 * x_31 - 18.0 x_2 * x_32 + 12.0 x_2 * x_34 - 18.5 x_3 * x_1 + 21.0 x_3 * x_4 - 0.5 x_3 * x_6 + 7.5 x_3 * x_7 + 2.0 x_3 * x_13 + 15.0 x_3 * x_15 + 3.0 x_3 * x_16 + 14.5 x_3 * x_17 - 15.5 x_3 * x_21 - 20.5 x_3 * x_24 + 5.5 x_3 * x_25 + 23.0 x_3 * x_26 + 12.0 x_3 * x_27 + 21.0 x_3 * x_30 + 3.5 x_3 * x_32 - 3.5 x_3 * x_34 + 5.0 x_3 * x_40 - 1.0 x_4 * x_2 + 21.0 x_4 * x_3 - 11.0 x_4 * x_4 + 1.5 x_4 * x_5 + 1.5 x_4 * x_6 + 6.0 x_4 * x_13 + 17.5 x_4 * x_15 - 17.5 x_4 * x_16 - 20.0 x_4 * x_22 + 24.5 x_4 * x_23 + 2.0 x_4 * x_24 - 23.5 x_4 * x_28 - 3.5 x_4 * x_31 + 13.5 x_4 * x_32 + 1.0 x_4 * x_33 - 1.5 x_4 * x_35 + 4.5 x_4 * x_36 - 23.0 x_4 * x_40 + 1.5 x_5 * x_4 - 7.5 x_5 * x_9 - 0.5 x_5 * x_12 + 17.5 x_5 * x_17 + 15.5 x_5 * x_18 - 21.5 x_5 * x_19 + 24.0 x_5 * x_26 + 4.0 x_5 * x_27 + 1.0 x_5 * x_29 - 7.5 x_5 * x_32 - 13.5 x_5 * x_34 + 24.0 x_5 * x_35 + 14.0 x_5 * x_39 - 0.5 x_6 * x_3 + 1.5 x_6 * x_4 - 11.5 x_6 * x_7 - 21.0 x_6 * x_14 - 20.5 x_6 * x_15 + 21.0 x_6 * x_17 - 20.0 x_6 * x_22 - 23.5 x_6 * x_23 + 12.5 x_6 * x_24 - 1.5 x_6 * x_26 - 7.0 x_6 * x_27 + 2.0 x_6 * x_32 - 20.5 x_6 * x_34 - 19.5 x_6 * x_35 + 23.5 x_6 * x_39 + 7.5 x_7 * x_3 - 11.5 x_7 * x_6 - 16.5 x_7 * x_8 - 5.0 x_7 * x_12 + 8.0 x_7 * x_14 - 1.5 x_7 * x_17 + 5.0 x_7 * x_18 - 20.5 x_7 * x_20 + 23.0 x_7 * x_27 + 8.5 x_7 * x_30 - 19.0 x_7 * x_32 - 2.5 x_7 * x_36 + 4.5 x_7 * x_39 + 2.5 x_7 * x_40 - 8.5 x_8 * x_1 + 11.0 x_8 * x_2 - 16.5 x_8 * x_7 - 17.0 x_8 * x_10 - 23.5 x_8 * x_12 - 7.0 x_8 * x_17 + 7.0 x_8 * x_18 - 24.0 x_8 * x_22 + 5.0 x_8 * x_23 - 23.0 x_8 * x_24 - 12.5 x_8 * x_26 + 24.0 x_8 * x_27 - 16.0 x_8 * x_36 - 8.5 x_8 * x_37 + 3.5 x_9 * x_1 - 7.5 x_9 * x_5 - 4.0 x_9 * x_11 - 19.0 x_9 * x_12 - 12.5 x_9 * x_20 - 3.5 x_9 * x_25 + 17.5 x_9 * x_27 - 20.0 x_9 * x_29 + 14.0 x_9 * x_31 - 4.5 x_9 * x_34 - 9.5 x_9 * x_35 + 4.0 x_9 * x_37 + 22.0 x_10 * x_1 - 17.0 x_10 * x_8 + 18.0 x_10 * x_12 + 2.5 x_10 * x_15 + 1.5 x_10 * x_16 - 13.5 x_10 * x_17 + 22.5 x_10 * x_18 - 17.5 x_10 * x_24 - 10.0 x_10 * x_27 - 10.5 x_10 * x_29 + 15.0 x_10 * x_30 - 1.5 x_10 * x_32 - 9.0 x_10 * x_39 - 4.0 x_11 * x_9 - 23.5 x_11 * x_20 - 24.5 x_11 * x_21 + 8.0 x_11 * x_22 + 12.5 x_11 * x_23 + 3.5 x_11 * x_25 - 12.5 x_11 * x_28 + 11.5 x_11 * x_31 + 22.5 x_11 * x_32 - 19.0 x_11 * x_34 - 7.5 x_11 * x_38 - 0.5 x_12 * x_5 - 5.0 x_12 * x_7 - 23.5 x_12 * x_8 - 19.0 x_12 * x_9 + 18.0 x_12 * x_10 + 17.0 x_12 * x_12 + 11.0 x_12 * x_13 + 9.0 x_12 * x_14 + 2.5 x_12 * x_15 - 15.5 x_12 * x_16 - 24.0 x_12 * x_18 - 3.5 x_12 * x_19 + 6.5 x_12 * x_20 + 4.5 x_12 * x_22 + 17.5 x_12 * x_24 - 19.0 x_12 * x_27 - 8.0 x_12 * x_29 - 18.0 x_12 * x_32 + 10.5 x_12 * x_34 - 4.5 x_12 * x_36 - 2.0 x_12 * x_39 - 24.0 x_12 * x_40 + 2.0 x_13 * x_3 + 6.0 x_13 * x_4 + 11.0 x_13 * x_12 + 5.5 x_13 * x_13 + 7.0 x_13 * x_15 + 1.0 x_13 * x_16 - 10.5 x_13 * x_17 - 16.0 x_13 * x_19 - 15.0 x_13 * x_28 - 1.5 x_13 * x_29 - 20.0 x_13 * x_34 + 7.0 x_13 * x_36 - 4.0 x_13 * x_38 + 21.0 x_13 * x_40 - 11.5 x_14 * x_1 - 21.0 x_14 * x_6 + 8.0 x_14 * x_7 + 9.0 x_14 * x_12 - 5.0 x_14 * x_18 + 2.0 x_14 * x_20 + 24.5 x_14 * x_23 + 23.5 x_14 * x_26 - 14.5 x_14 * x_29 + 12.5 x_14 * x_31 - 18.5 x_14 * x_34 + 2.0 x_14 * x_36 + 10.0 x_14 * x_37 - 2.5 x_14 * x_38 - 13.0 x_14 * x_39 + 11.0 x_14 * x_40 - 19.5 x_15 * x_1 + 18.0 x_15 * x_2 + 15.0 x_15 * x_3 + 17.5 x_15 * x_4 - 20.5 x_15 * x_6 + 2.5 x_15 * x_10 + 2.5 x_15 * x_12 + 7.0 x_15 * x_13 - 19.0 x_15 * x_18 - 18.5 x_15 * x_19 + 3.5 x_15 * x_20 - 1.5 x_15 * x_23 + 1.5 x_15 * x_25 + 6.5 x_15 * x_30 - 21.5 x_15 * x_31 + 0.5 x_15 * x_32 + 5.5 x_15 * x_33 + 18.5 x_15 * x_38 - 22.0 x_15 * x_39 - 10.5 x_15 * x_40 + 8.0 x_16 * x_1 + 3.0 x_16 * x_3 - 17.5 x_16 * x_4 + 1.5 x_16 * x_10 - 15.5 x_16 * x_12 + 1.0 x_16 * x_13 - 3.5 x_16 * x_16 + 3.5 x_16 * x_18 - 3.0 x_16 * x_19 - 1.0 x_16 * x_21 - 12.0 x_16 * x_22 + 17.5 x_16 * x_24 - 14.0 x_16 * x_25 - 18.0 x_16 * x_26 - 17.5 x_16 * x_27 - 8.0 x_16 * x_31 - 0.5 x_16 * x_32 + 7.5 x_16 * x_34 - 12.5 x_16 * x_37 - 3.5 x_17 * x_1 + 14.5 x_17 * x_3 + 17.5 x_17 * x_5 + 21.0 x_17 * x_6 - 1.5 x_17 * x_7 - 7.0 x_17 * x_8 - 13.5 x_17 * x_10 - 10.5 x_17 * x_13 + 2.0 x_17 * x_17 + 17.0 x_17 * x_18 - 17.5 x_17 * x_21 - 2.5 x_17 * x_26 - 8.5 x_17 * x_27 - 2.5 x_17 * x_31 - 14.0 x_17 * x_32 + 17.5 x_17 * x_33 - 6.5 x_17 * x_35 + 22.0 x_17 * x_38 - 10.5 x_18 * x_1 + 15.5 x_18 * x_5 + 5.0 x_18 * x_7 + 7.0 x_18 * x_8 + 22.5 x_18 * x_10 - 24.0 x_18 * x_12 - 5.0 x_18 * x_14 - 19.0 x_18 * x_15 + 3.5 x_18 * x_16 + 17.0 x_18 * x_17 + 21.0 x_18 * x_18 - 18.0 x_18 * x_20 + 16.5 x_18 * x_25 - 18.0 x_18 * x_26 + 20.0 x_18 * x_27 - 5.0 x_18 * x_29 - 20.0 x_18 * x_30 + 15.0 x_18 * x_31 - 13.0 x_18 * x_33 + 17.5 x_18 * x_35 + 14.5 x_18 * x_36 + 2.5 x_18 * x_37 - 8.0 x_18 * x_40 - 6.5 x_19 * x_2 - 21.5 x_19 * x_5 - 3.5 x_19 * x_12 - 16.0 x_19 * x_13 - 18.5 x_19 * x_15 - 3.0 x_19 * x_16 + 22.0 x_19 * x_19 + 0.5 x_19 * x_20 - 2.0 x_19 * x_24 - 17.5 x_19 * x_26 - 22.0 x_19 * x_35 - 11.0 x_19 * x_36 - 9.5 x_19 * x_38 - 8.0 x_19 * x_40 - 20.5 x_20 * x_7 - 12.5 x_20 * x_9 - 23.5 x_20 * x_11 + 6.5 x_20 * x_12 + 2.0 x_20 * x_14 + 3.5 x_20 * x_15 - 18.0 x_20 * x_18 + 0.5 x_20 * x_19 - 24.0 x_20 * x_20 + 5.5 x_20 * x_23 - 9.5 x_20 * x_24 - 17.5 x_20 * x_28 - 5.5 x_20 * x_29 + 0.5 x_20 * x_30 + 6.5 x_20 * x_31 + 23.0 x_20 * x_32 - 19.0 x_20 * x_33 - 1.0 x_20 * x_38 - 20.0 x_21 * x_1 + 16.0 x_21 * x_2 - 15.5 x_21 * x_3 - 24.5 x_21 * x_11 - 1.0 x_21 * x_16 - 17.5 x_21 * x_17 + 5.0 x_21 * x_24 - 12.5 x_21 * x_29 + 24.0 x_21 * x_30 + 16.5 x_21 * x_32 - 4.0 x_21 * x_34 + 20.5 x_22 * x_2 - 20.0 x_22 * x_4 - 20.0 x_22 * x_6 - 24.0 x_22 * x_8 + 8.0 x_22 * x_11 + 4.5 x_22 * x_12 - 12.0 x_22 * x_16 - 10.5 x_22 * x_22 - 19.0 x_22 * x_23 + 12.0 x_22 * x_26 - 4.5 x_22 * x_27 - 18.5 x_22 * x_29 + 4.5 x_22 * x_30 + 6.5 x_22 * x_31 - 23.5 x_22 * x_33 - 16.0 x_22 * x_39 - 1.5 x_23 * x_1 + 24.5 x_23 * x_4 - 23.5 x_23 * x_6 + 5.0 x_23 * x_8 + 12.5 x_23 * x_11 + 24.5 x_23 * x_14 - 1.5 x_23 * x_15 + 5.5 x_23 * x_20 - 19.0 x_23 * x_22 - 18.5 x_23 * x_27 - 22.0 x_23 * x_28 + 3.0 x_23 * x_34 + 16.5 x_23 * x_37 - 3.5 x_23 * x_38 + 16.5 x_23 * x_39 + 23.5 x_24 * x_2 - 20.5 x_24 * x_3 + 2.0 x_24 * x_4 + 12.5 x_24 * x_6 - 23.0 x_24 * x_8 - 17.5 x_24 * x_10 + 17.5 x_24 * x_12 + 17.5 x_24 * x_16 - 2.0 x_24 * x_19 - 9.5 x_24 * x_20 + 5.0 x_24 * x_21 - 20.5 x_24 * x_26 - 18.0 x_24 * x_27 - 5.5 x_24 * x_28 - 13.0 x_24 * x_31 + 6.0 x_24 * x_32 - 13.5 x_24 * x_33 + 4.0 x_24 * x_37 + 15.5 x_24 * x_38 + 5.5 x_25 * x_3 - 3.5 x_25 * x_9 + 3.5 x_25 * x_11 + 1.5 x_25 * x_15 - 14.0 x_25 * x_16 + 16.5 x_25 * x_18 + 6.0 x_25 * x_25 - 10.5 x_25 * x_34 - 19.0 x_25 * x_35 - 24.5 x_25 * x_39 + 23.0 x_26 * x_3 + 24.0 x_26 * x_5 - 1.5 x_26 * x_6 - 12.5 x_26 * x_8 + 23.5 x_26 * x_14 - 18.0 x_26 * x_16 - 2.5 x_26 * x_17 - 18.0 x_26 * x_18 - 17.5 x_26 * x_19 + 12.0 x_26 * x_22 - 20.5 x_26 * x_24 + 24.5 x_26 * x_27 + 19.0 x_26 * x_28 + 17.5 x_26 * x_32 - 23.5 x_26 * x_33 + 18.5 x_26 * x_37 + 24.5 x_26 * x_39 - 1.0 x_26 * x_40 + 12.0 x_27 * x_3 + 4.0 x_27 * x_5 - 7.0 x_27 * x_6 + 23.0 x_27 * x_7 + 24.0 x_27 * x_8 + 17.5 x_27 * x_9 - 10.0 x_27 * x_10 - 19.0 x_27 * x_12 - 17.5 x_27 * x_16 - 8.5 x_27 * x_17 + 20.0 x_27 * x_18 - 4.5 x_27 * x_22 - 18.5 x_27 * x_23 - 18.0 x_27 * x_24 + 24.5 x_27 * x_26 - 21.0 x_27 * x_27 + 4.0 x_27 * x_28 - 6.5 x_27 * x_29 + 5.5 x_27 * x_30 - 11.0 x_27 * x_33 - 1.5 x_27 * x_36 + 19.0 x_27 * x_37 - 16.0 x_28 * x_2 - 23.5 x_28 * x_4 - 12.5 x_28 * x_11 - 15.0 x_28 * x_13 - 17.5 x_28 * x_20 - 22.0 x_28 * x_23 - 5.5 x_28 * x_24 + 19.0 x_28 * x_26 + 4.0 x_28 * x_27 + 24.0 x_28 * x_31 - 19.0 x_28 * x_32 + 17.0 x_28 * x_34 + 7.0 x_28 * x_35 + 17.5 x_28 * x_36 + 9.0 x_29 * x_1 + 1.0 x_29 * x_5 - 20.0 x_29 * x_9 - 10.5 x_29 * x_10 - 8.0 x_29 * x_12 - 1.5 x_29 * x_13 - 14.5 x_29 * x_14 - 5.0 x_29 * x_18 - 5.5 x_29 * x_20 - 12.5 x_29 * x_21 - 18.5 x_29 * x_22 - 6.5 x_29 * x_27 - 2.0 x_29 * x_31 + 20.0 x_29 * x_35 + 11.5 x_29 * x_40 + 10.5 x_30 * x_2 + 21.0 x_30 * x_3 + 8.5 x_30 * x_7 + 15.0 x_30 * x_10 + 6.5 x_30 * x_15 - 20.0 x_30 * x_18 + 0.5 x_30 * x_20 + 24.0 x_30 * x_21 + 4.5 x_30 * x_22 + 5.5 x_30 * x_27 - 9.0 x_30 * x_36 + 6.0 x_31 * x_2 - 3.5 x_31 * x_4 + 14.0 x_31 * x_9 + 11.5 x_31 * x_11 + 12.5 x_31 * x_14 - 21.5 x_31 * x_15 - 8.0 x_31 * x_16 - 2.5 x_31 * x_17 + 15.0 x_31 * x_18 + 6.5 x_31 * x_20 + 6.5 x_31 * x_22 - 13.0 x_31 * x_24 + 24.0 x_31 * x_28 - 2.0 x_31 * x_29 + 7.0 x_31 * x_36 + 12.5 x_31 * x_40 - 18.0 x_32 * x_2 + 3.5 x_32 * x_3 + 13.5 x_32 * x_4 - 7.5 x_32 * x_5 + 2.0 x_32 * x_6 - 19.0 x_32 * x_7 - 1.5 x_32 * x_10 + 22.5 x_32 * x_11 - 18.0 x_32 * x_12 + 0.5 x_32 * x_15 - 0.5 x_32 * x_16 - 14.0 x_32 * x_17 + 23.0 x_32 * x_20 + 16.5 x_32 * x_21 + 6.0 x_32 * x_24 + 17.5 x_32 * x_26 - 19.0 x_32 * x_28 - 6.5 x_32 * x_33 - 20.5 x_32 * x_34 - 2.0 x_32 * x_38 + 1.0 x_33 * x_4 + 5.5 x_33 * x_15 + 17.5 x_33 * x_17 - 13.0 x_33 * x_18 - 19.0 x_33 * x_20 - 23.5 x_33 * x_22 - 13.5 x_33 * x_24 - 23.5 x_33 * x_26 - 11.0 x_33 * x_27 - 6.5 x_33 * x_32 + 3.0 x_33 * x_33 - 24.5 x_33 * x_34 + 17.5 x_33 * x_36 - 19.5 x_33 * x_37 - 13.0 x_33 * x_38 + 12.0 x_34 * x_2 - 3.5 x_34 * x_3 - 13.5 x_34 * x_5 - 20.5 x_34 * x_6 - 4.5 x_34 * x_9 - 19.0 x_34 * x_11 + 10.5 x_34 * x_12 - 20.0 x_34 * x_13 - 18.5 x_34 * x_14 + 7.5 x_34 * x_16 - 4.0 x_34 * x_21 + 3.0 x_34 * x_23 - 10.5 x_34 * x_25 + 17.0 x_34 * x_28 - 20.5 x_34 * x_32 - 24.5 x_34 * x_33 - 8.0 x_34 * x_35 + 16.5 x_34 * x_36 - 20.5 x_34 * x_37 + 7.0 x_34 * x_38 + 21.0 x_34 * x_40 - 1.5 x_35 * x_4 + 24.0 x_35 * x_5 - 19.5 x_35 * x_6 - 9.5 x_35 * x_9 - 6.5 x_35 * x_17 + 17.5 x_35 * x_18 - 22.0 x_35 * x_19 - 19.0 x_35 * x_25 + 7.0 x_35 * x_28 + 20.0 x_35 * x_29 - 8.0 x_35 * x_34 + 19.5 x_35 * x_36 - 0.5 x_35 * x_38 + 4.5 x_36 * x_4 - 2.5 x_36 * x_7 - 16.0 x_36 * x_8 - 4.5 x_36 * x_12 + 7.0 x_36 * x_13 + 2.0 x_36 * x_14 + 14.5 x_36 * x_18 - 11.0 x_36 * x_19 - 1.5 x_36 * x_27 + 17.5 x_36 * x_28 - 9.0 x_36 * x_30 + 7.0 x_36 * x_31 + 17.5 x_36 * x_33 + 16.5 x_36 * x_34 + 19.5 x_36 * x_35 + 15.5 x_37 * x_1 - 8.5 x_37 * x_8 + 4.0 x_37 * x_9 + 10.0 x_37 * x_14 - 12.5 x_37 * x_16 + 2.5 x_37 * x_18 + 16.5 x_37 * x_23 + 4.0 x_37 * x_24 + 18.5 x_37 * x_26 + 19.0 x_37 * x_27 - 19.5 x_37 * x_33 - 20.5 x_37 * x_34 - 17.0 x_37 * x_37 + 6.0 x_37 * x_39 + 17.5 x_37 * x_40 - 5.5 x_38 * x_1 - 7.5 x_38 * x_11 - 4.0 x_38 * x_13 - 2.5 x_38 * x_14 + 18.5 x_38 * x_15 + 22.0 x_38 * x_17 - 9.5 x_38 * x_19 - 1.0 x_38 * x_20 - 3.5 x_38 * x_23 + 15.5 x_38 * x_24 - 2.0 x_38 * x_32 - 13.0 x_38 * x_33 + 7.0 x_38 * x_34 - 0.5 x_38 * x_35 + 5.5 x_38 * x_39 + 14.0 x_39 * x_5 + 23.5 x_39 * x_6 + 4.5 x_39 * x_7 - 9.0 x_39 * x_10 - 2.0 x_39 * x_12 - 13.0 x_39 * x_14 - 22.0 x_39 * x_15 - 16.0 x_39 * x_22 + 16.5 x_39 * x_23 - 24.5 x_39 * x_25 + 24.5 x_39 * x_26 + 6.0 x_39 * x_37 + 5.5 x_39 * x_38 + 16.5 x_39 * x_39 - 1.5 x_39 * x_40 + 3.0 x_40 * x_1 + 5.0 x_40 * x_3 - 23.0 x_40 * x_4 + 2.5 x_40 * x_7 - 24.0 x_40 * x_12 + 21.0 x_40 * x_13 + 11.0 x_40 * x_14 - 10.5 x_40 * x_15 - 8.0 x_40 * x_18 - 8.0 x_40 * x_19 - 1.0 x_40 * x_26 + 11.5 x_40 * x_29 + 12.5 x_40 * x_31 + 21.0 x_40 * x_34 + 17.5 x_40 * x_37 - 1.5 x_40 * x_39 + 4.5 x_40 * x_40 ] + 39.0 x_1 + 45.0 x_2 + 0.0 x_3 + 0.0 x_4 + 0.0 x_5 + 0.0 x_6 + 0.0 x_7 + 0.0 x_8 + 45.0 x_9 + 34.0 x_10 + 18.0 x_11 - 20.0 x_12 + 0.0 x_13 + 0.0 x_14 + 0.0 x_15 + 42.0 x_16 + 0.0 x_17 + 0.0 x_18 + 0.0 x_19 + 0.0 x_20 - 27.0 x_21 - 8.0 x_22 + 37.0 x_23 + 0.0 x_24 + 49.0 x_25 + 35.0 x_26 - 32.0 x_27 + 0.0 x_28 + 0.0 x_29 + 0.0 x_30 + 0.0 x_31 - 47.0 x_32 + 25.0 x_33 + 40.0 x_34 + 0.0 x_35 + 6.0 x_36 + 0.0 x_37 + 0.0 x_38 + 0.0 x_39 + 0.0 x_40

Subject To
 e2: [  x_1 * x_2 ] = 0.0
 e3: [  x_1 * x_9 ] = 0.0
 e4: [  x_1 * x_18 ] = 0.0
 e5: [  x_1 * x_21 ] = 0.0
 e6: [  x_2 * x_1 ] = 0.0
 e7: [  x_2 * x_28 ] = 0.0
 e8: [  x_3 * x_7 ] = 0.0
 e9: [  x_3 * x_30 ] = 0.0
 e10: [  x_4 * x_2 ] = 0.0
 e11: [  x_4 * x_13 ] = 0.0
 e12: [  x_4 * x_24 ] = 0.0
 e13: [  x_6 * x_22 ] = 0.0
 e14: [  x_7 * x_12 ] = 0.0
 e15: [  x_7 * x_18 ] = 0.0
 e16: [  x_7 * x_36 ] = 0.0
 e17: [  x_8 * x_26 ] = 0.0
 e18: [  x_9 * x_12 ] = 0.0
 e19: [  x_10 * x_18 ] = 0.0
 e20: [  x_12 * x_34 ] = 0.0
 e21: [  x_13 * x_4 ] = 0.0
 e22: [  x_13 * x_29 ] = 0.0
 e23: [  x_14 * x_29 ] = 0.0
 e24: [  x_14 * x_40 ] = 0.0
 e25: [  x_15 * x_19 ] = 0.0
 e26: [  x_16 * x_16 ] = 0.0
 e27: [  x_16 * x_21 ] = 0.0
 e28: [  x_16 * x_25 ] = 0.0
 e29: [  x_17 * x_13 ] = 0.0
 e30: [  x_17 * x_35 ] = 0.0
 e31: [  x_19 * x_5 ] = 0.0
 e32: [  x_19 * x_36 ] = 0.0
 e33: [  x_19 * x_40 ] = 0.0
 e34: [  x_20 * x_30 ] = 0.0
 e35: [  x_21 * x_17 ] = 0.0
 e36: [  x_22 * x_2 ] = 0.0
 e37: [  x_22 * x_11 ] = 0.0
 e38: [  x_22 * x_12 ] = 0.0
 e39: [  x_22 * x_29 ] = 0.0
 e40: [  x_24 * x_8 ] = 0.0
 e41: [  x_24 * x_31 ] = 0.0
 e42: [  x_26 * x_27 ] = 0.0
 e43: [  x_26 * x_33 ] = 0.0
 e44: [  x_28 * x_31 ] = 0.0
 e45: [  x_29 * x_1 ] = 0.0
 e46: [  x_29 * x_12 ] = 0.0
 e47: [  x_29 * x_13 ] = 0.0
 e48: [  x_29 * x_21 ] = 0.0
 e49: [  x_29 * x_27 ] = 0.0
 e50: [  x_30 * x_7 ] = 0.0
 e51: [  x_30 * x_27 ] = 0.0
 e52: [  x_31 * x_11 ] = 0.0
 e53: [  x_31 * x_16 ] = 0.0
 e54: [  x_31 * x_29 ] = 0.0
 e55: [  x_32 * x_11 ] = 0.0
 e56: [  x_33 * x_27 ] = 0.0
 e57: [  x_33 * x_33 ] = 0.0
 e58: [  x_34 * x_2 ] = 0.0
 e59: [  x_35 * x_9 ] = 0.0
 e60: [  x_35 * x_34 ] = 0.0
 e61: [  x_36 * x_18 ] = 0.0
 e62: [  x_36 * x_33 ] = 0.0
 e63: [  x_37 * x_40 ] = 0.0
 e64: [  x_38 * x_35 ] = 0.0
 e65: [  x_39 * x_14 ] = 0.0
 e66: [  x_40 * x_1 ] = 0.0
 e67: [  x_40 * x_7 ] = 0.0
 e68: [  x_40 * x_39 ] = 0.0
 e69: [  x_40 * x_40 ] = 0.0

Bounds
 x_1 <= 1.0
 x_2 <= 1.0
 x_3 <= 1.0
 x_4 <= 1.0
 x_5 <= 1.0
 x_6 <= 1.0
 x_7 <= 1.0
 x_8 <= 1.0
 x_9 <= 1.0
 x_10 <= 1.0
 x_11 <= 1.0
 x_12 <= 1.0
 x_13 <= 1.0
 x_14 <= 1.0
 x_15 <= 1.0
 x_16 <= 1.0
 x_17 <= 1.0
 x_18 <= 1.0
 x_19 <= 1.0
 x_20 <= 1.0
 x_21 <= 1.0
 x_22 <= 1.0
 x_23 <= 1.0
 x_24 <= 1.0
 x_25 <= 1.0
 x_26 <= 1.0
 x_27 <= 1.0
 x_28 <= 1.0
 x_29 <= 1.0
 x_30 <= 1.0
 x_31 <= 1.0
 x_32 <= 1.0
 x_33 <= 1.0
 x_34 <= 1.0
 x_35 <= 1.0
 x_36 <= 1.0
 x_37 <= 1.0
 x_38 <= 1.0
 x_39 <= 1.0
 x_40 <= 1.0

End